g3 0 1 0	# problem WFG5
 8 0 3 0 0	# vars, constraints, objectives, ranges, eqns
 0 3	# nonlinear constraints, objectives
 0 0	# network constraints: nonlinear, linear
 0 8 0	# nonlinear vars in constraints, objectives, both
 0 0 0 1	# linear network variables; functions; arith, flags
 0 0 0 0 0	# discrete variables: binary, integer, nonlinear (b,c,o)
 0 22	# nonzeros in Jacobian, gradients
 0 0	# max name lengths: constraints, variables
 0 0 22 0 3	# common exprs: b,c,o,c1,o1
V8 1 0
0 0.5
n0
V9 1 0
1 0.25
n0
V10 1 0
2 0.16666666666666666
n0
V11 1 0
3 0.125
n0
V12 1 0
4 0.1
n0
V13 1 0
5 0.08333333333333333
n0
V14 1 0
6 0.07142857142857142
n0
V15 1 0
7 0.0625
n0
V16 0 0
o0
o2
o1
o15
o1
v8
n0.35
n0.001
o54
3
o3
o2
n349.94999999999993
o13
o0
n0.001
o1
v8
n0.35
n0.349
o3
o2
n649.95
o13
o1
n0.351
v8
n0.649
n1000
n1
V17 0 0
o0
o2
o1
o15
o1
v9
n0.35
n0.001
o54
3
o3
o2
n349.94999999999993
o13
o0
n0.001
o1
v9
n0.35
n0.349
o3
o2
n649.95
o13
o1
n0.351
v9
n0.649
n1000
n1
V18 0 0
o0
o2
o1
o15
o1
v10
n0.35
n0.001
o54
3
o3
o2
n349.94999999999993
o13
o0
n0.001
o1
v10
n0.35
n0.349
o3
o2
n649.95
o13
o1
n0.351
v10
n0.649
n1000
n1
V19 0 0
o0
o2
o1
o15
o1
v11
n0.35
n0.001
o54
3
o3
o2
n349.94999999999993
o13
o0
n0.001
o1
v11
n0.35
n0.349
o3
o2
n649.95
o13
o1
n0.351
v11
n0.649
n1000
n1
V20 0 0
o0
o2
o1
o15
o1
v12
n0.35
n0.001
o54
3
o3
o2
n349.94999999999993
o13
o0
n0.001
o1
v12
n0.35
n0.349
o3
o2
n649.95
o13
o1
n0.351
v12
n0.649
n1000
n1
V21 0 0
o0
o2
o1
o15
o1
v13
n0.35
n0.001
o54
3
o3
o2
n349.94999999999993
o13
o0
n0.001
o1
v13
n0.35
n0.349
o3
o2
n649.95
o13
o1
n0.351
v13
n0.649
n1000
n1
V22 0 0
o0
o2
o1
o15
o1
v14
n0.35
n0.001
o54
3
o3
o2
n349.94999999999993
o13
o0
n0.001
o1
v14
n0.35
n0.349
o3
o2
n649.95
o13
o1
n0.351
v14
n0.649
n1000
n1
V23 0 0
o0
o2
o1
o15
o1
v15
n0.35
n0.001
o54
3
o3
o2
n349.94999999999993
o13
o0
n0.001
o1
v15
n0.35
n0.349
o3
o2
n649.95
o13
o1
n0.351
v15
n0.649
n1000
n1
V24 0 0
o0
o2
n0.5
v17
o2
n0.5
v16
V25 0 0
o0
o2
n0.5
v19
o2
n0.5
v18
V26 0 0
o54
4
o2
n0.25
v23
o2
n0.25
v22
o2
n0.25
v21
o2
n0.25
v20
V27 0 0
o0
o2
o12
2
n1
v26
o1
v24
n0.5
n0.5
V28 0 0
o0
o2
o12
2
n1
v26
o1
v25
n0.5
n0.5
V29 0 0
v26
V30 0 1
o2
o41
o2
n1.5707963267948966
v27
o41
o2
n1.5707963267948966
v28
O0 0
o0
o2
n2
v30
v29
V31 0 2
o2
o41
o2
n1.5707963267948966
v27
o46
o2
n1.5707963267948966
v28
O1 0
o0
o2
n4
v31
v29
V32 0 3
o46
o2
n1.5707963267948966
v27
O2 0
o0
o2
n6
v32
v29
b
0 0 2
0 0 4
0 0 6
0 0 8
0 0 10
0 0 12
0 0 14
0 0 16
k7
0
0
0
0
0
0
0
G0 8
0 0
1 0
2 0
3 0
4 0
5 0
6 0
7 0
G1 8
0 0
1 0
2 0
3 0
4 0
5 0
6 0
7 0
G2 6
0 0
1 0
4 0
5 0
6 0
7 0
